c strEdges: 125  randomEdges: 504 
c degrees:  1  2 
c girth: Inf max: -43.604516  
c Hgirth mixed MAXCUT instance
c generated from an undirected graph
c to solve unweighted MaxCut
p cnf 140 1258
101 66 0
-101 -66 0
101 128 0
-101 -128 0
15 70 0
-15 -70 0
138 72 0
-138 -72 0
138 90 0
-138 -90 0
68 94 0
-68 -94 0
68 86 0
-68 -86 0
98 86 0
-98 -86 0
98 120 0
-98 -120 0
116 93 0
-116 -93 0
116 105 0
-116 -105 0
20 102 0
-20 -102 0
20 16 0
-20 -16 0
19 73 0
-19 -73 0
19 40 0
-19 -40 0
136 51 0
-136 -51 0
136 3 0
-136 -3 0
81 63 0
-81 -63 0
65 34 0
-65 -34 0
65 62 0
-65 -62 0
32 127 0
-32 -127 0
32 125 0
-32 -125 0
87 97 0
-87 -97 0
87 82 0
-87 -82 0
2 48 0
-2 -48 0
2 95 0
-2 -95 0
7 30 0
-7 -30 0
7 38 0
-7 -38 0
111 104 0
-111 -104 0
111 43 0
-111 -43 0
53 130 0
-53 -130 0
53 77 0
-53 -77 0
27 112 0
-27 -112 0
27 36 0
-27 -36 0
11 131 0
-11 -131 0
121 79 0
-121 -79 0
121 122 0
-121 -122 0
41 43 0
-41 -43 0
41 93 0
-41 -93 0
140 50 0
-140 -50 0
140 71 0
-140 -71 0
61 28 0
-61 -28 0
61 22 0
-61 -22 0
135 103 0
-135 -103 0
135 78 0
-135 -78 0
13 118 0
-13 -118 0
13 103 0
-13 -103 0
106 124 0
-106 -124 0
106 113 0
-106 -113 0
23 80 0
-23 -80 0
42 125 0
-42 -125 0
42 63 0
-42 -63 0
107 95 0
-107 -95 0
107 91 0
-107 -91 0
139 113 0
-139 -113 0
139 33 0
-139 -33 0
10 105 0
-10 -105 0
10 5 0
-10 -5 0
14 122 0
-14 -122 0
14 54 0
-14 -54 0
74 91 0
-74 -91 0
74 75 0
-74 -75 0
117 9 0
-117 -9 0
117 108 0
-117 -108 0
110 58 0
-110 -58 0
110 96 0
-110 -96 0
99 29 0
-99 -29 0
99 52 0
-99 -52 0
24 3 0
-24 -3 0
24 102 0
-24 -102 0
49 12 0
-49 -12 0
49 66 0
-49 -66 0
8 78 0
-8 -78 0
8 17 0
-8 -17 0
76 35 0
-76 -35 0
76 58 0
-76 -58 0
39 132 0
-39 -132 0
39 50 0
-39 -50 0
69 67 0
-69 -67 0
69 114 0
-69 -114 0
46 59 0
-46 -59 0
57 36 0
-57 -36 0
57 12 0
-57 -12 0
88 52 0
-88 -52 0
88 73 0
-88 -73 0
84 40 0
-84 -40 0
129 120 0
-129 -120 0
64 119 0
-64 -119 0
64 67 0
-64 -67 0
47 96 0
-47 -96 0
47 112 0
-47 -112 0
123 5 0
-123 -5 0
123 9 0
-123 -9 0
56 77 0
-56 -77 0
56 118 0
-56 -118 0
44 128 0
-44 -128 0
44 130 0
-44 -130 0
31 108 0
-31 -108 0
55 16 0
-55 -16 0
115 33 0
-115 -33 0
25 4 0
-25 -4 0
25 119 0
-25 -119 0
126 114 0
-126 -114 0
126 34 0
-126 -34 0
1 134 0
-1 -134 0
1 133 0
-1 -133 0
18 133 0
-18 -133 0
60 75 0
-60 -75 0
60 79 0
-60 -79 0
85 100 0
-85 -100 0
21 54 0
-21 -54 0
21 51 0
-21 -51 0
6 82 0
-6 -82 0
6 127 0
-6 -127 0
137 37 0
-137 -37 0
137 35 0
-137 -35 0
89 62 0
-89 -62 0
45 22 0
-45 -22 0
26 71 0
-26 -71 0
92 38 0
-92 -38 0
92 134 0
-92 -134 0
83 90 0
-83 -90 0
83 94 0
-83 -94 0
109 17 0
-109 -17 0
109 132 0
-109 -132 0
139 91 0
-139 -91 0
60 93 0
-60 -93 0
115 133 0
-115 -133 0
61 26 0
-61 -26 0
76 70 0
-76 -70 0
60 128 0
-60 -128 0
49 79 0
-49 -79 0
34 118 0
-34 -118 0
14 72 0
-14 -72 0
19 114 0
-19 -114 0
26 54 0
-26 -54 0
97 132 0
-97 -132 0
65 91 0
-65 -91 0
62 90 0
-62 -90 0
116 129 0
-116 -129 0
15 111 0
-15 -111 0
69 1 0
-69 -1 0
27 126 0
-27 -126 0
21 86 0
-21 -86 0
76 25 0
-76 -25 0
11 28 0
-11 -28 0
136 24 0
-136 -24 0
116 94 0
-116 -94 0
60 120 0
-60 -120 0
69 82 0
-69 -82 0
27 22 0
-27 -22 0
102 82 0
-102 -82 0
8 57 0
-8 -57 0
7 140 0
-7 -140 0
6 113 0
-6 -113 0
81 35 0
-81 -35 0
74 22 0
-74 -22 0
60 12 0
-60 -12 0
56 85 0
-56 -85 0
69 89 0
-69 -89 0
92 52 0
-92 -52 0
101 132 0
-101 -132 0
15 21 0
-15 -21 0
76 50 0
-76 -50 0
43 67 0
-43 -67 0
138 49 0
-138 -49 0
103 58 0
-103 -58 0
34 67 0
-34 -67 0
136 126 0
-136 -126 0
32 29 0
-32 -29 0
129 103 0
-129 -103 0
19 67 0
-19 -67 0
44 83 0
-44 -83 0
58 5 0
-58 -5 0
49 100 0
-49 -100 0
139 128 0
-139 -128 0
2 121 0
-2 -121 0
110 131 0
-110 -131 0
100 82 0
-100 -82 0
11 90 0
-11 -90 0
116 89 0
-116 -89 0
131 103 0
-131 -103 0
98 93 0
-98 -93 0
10 62 0
-10 -62 0
121 16 0
-121 -16 0
101 54 0
-101 -54 0
46 44 0
-46 -44 0
35 114 0
-35 -114 0
119 71 0
-119 -71 0
47 35 0
-47 -35 0
12 35 0
-12 -35 0
57 83 0
-57 -83 0
68 33 0
-68 -33 0
70 29 0
-70 -29 0
63 128 0
-63 -128 0
23 44 0
-23 -44 0
41 123 0
-41 -123 0
20 130 0
-20 -130 0
110 75 0
-110 -75 0
74 110 0
-74 -110 0
81 46 0
-81 -46 0
137 54 0
-137 -54 0
85 97 0
-85 -97 0
30 17 0
-30 -17 0
32 121 0
-32 -121 0
124 59 0
-124 -59 0
8 93 0
-8 -93 0
81 95 0
-81 -95 0
21 30 0
-21 -30 0
81 24 0
-81 -24 0
115 137 0
-115 -137 0
30 134 0
-30 -134 0
15 92 0
-15 -92 0
97 80 0
-97 -80 0
111 129 0
-111 -129 0
46 77 0
-46 -77 0
75 90 0
-75 -90 0
7 11 0
-7 -11 0
27 99 0
-27 -99 0
15 125 0
-15 -125 0
52 5 0
-52 -5 0
8 35 0
-8 -35 0
114 133 0
-114 -133 0
55 34 0
-55 -34 0
138 110 0
-138 -110 0
135 5 0
-135 -5 0
53 91 0
-53 -91 0
45 54 0
-45 -54 0
125 58 0
-125 -58 0
126 112 0
-126 -112 0
3 62 0
-3 -62 0
93 36 0
-93 -36 0
41 92 0
-41 -92 0
51 132 0
-51 -132 0
99 66 0
-99 -66 0
48 134 0
-48 -134 0
70 33 0
-70 -33 0
64 54 0
-64 -54 0
99 33 0
-99 -33 0
32 129 0
-32 -129 0
94 104 0
-94 -104 0
93 63 0
-93 -63 0
13 95 0
-13 -95 0
70 93 0
-70 -93 0
74 18 0
-74 -18 0
70 79 0
-70 -79 0
78 67 0
-78 -67 0
53 114 0
-53 -114 0
46 45 0
-46 -45 0
2 59 0
-2 -59 0
10 114 0
-10 -114 0
76 77 0
-76 -77 0
136 22 0
-136 -22 0
24 70 0
-24 -70 0
111 110 0
-111 -110 0
91 59 0
-91 -59 0
63 95 0
-63 -95 0
139 137 0
-139 -137 0
25 17 0
-25 -17 0
46 124 0
-46 -124 0
1 40 0
-1 -40 0
109 75 0
-109 -75 0
81 26 0
-81 -26 0
21 131 0
-21 -131 0
81 45 0
-81 -45 0
123 109 0
-123 -109 0
136 26 0
-136 -26 0
98 75 0
-98 -75 0
97 28 0
-97 -28 0
23 125 0
-23 -125 0
125 67 0
-125 -67 0
102 90 0
-102 -90 0
104 124 0
-104 -124 0
106 69 0
-106 -69 0
27 134 0
-27 -134 0
136 124 0
-136 -124 0
109 9 0
-109 -9 0
99 35 0
-99 -35 0
27 14 0
-27 -14 0
116 4 0
-116 -4 0
68 54 0
-68 -54 0
138 33 0
-138 -33 0
126 17 0
-126 -17 0
13 92 0
-13 -92 0
72 108 0
-72 -108 0
72 28 0
-72 -28 0
76 104 0
-76 -104 0
44 75 0
-44 -75 0
27 46 0
-27 -46 0
5 100 0
-5 -100 0
11 139 0
-11 -139 0
41 59 0
-41 -59 0
21 127 0
-21 -127 0
120 128 0
-120 -128 0
79 91 0
-79 -91 0
32 115 0
-32 -115 0
28 36 0
-28 -36 0
101 22 0
-101 -22 0
13 100 0
-13 -100 0
93 132 0
-93 -132 0
70 94 0
-70 -94 0
27 120 0
-27 -120 0
58 75 0
-58 -75 0
123 93 0
-123 -93 0
41 58 0
-41 -58 0
89 90 0
-89 -90 0
95 58 0
-95 -58 0
69 31 0
-69 -31 0
122 58 0
-122 -58 0
15 46 0
-15 -46 0
10 124 0
-10 -124 0
8 94 0
-8 -94 0
99 25 0
-99 -25 0
42 102 0
-42 -102 0
97 58 0
-97 -58 0
122 134 0
-122 -134 0
2 31 0
-2 -31 0
41 10 0
-41 -10 0
93 62 0
-93 -62 0
70 43 0
-70 -43 0
116 71 0
-116 -71 0
7 37 0
-7 -37 0
74 90 0
-74 -90 0
42 109 0
-42 -109 0
32 130 0
-32 -130 0
46 52 0
-46 -52 0
1 132 0
-1 -132 0
85 83 0
-85 -83 0
15 69 0
-15 -69 0
7 64 0
-7 -64 0
128 33 0
-128 -33 0
139 69 0
-139 -69 0
7 112 0
-7 -112 0
121 93 0
-121 -93 0
101 108 0
-101 -108 0
18 90 0
-18 -90 0
68 29 0
-68 -29 0
49 8 0
-49 -8 0
101 10 0
-101 -10 0
53 57 0
-53 -57 0
11 33 0
-11 -33 0
110 63 0
-110 -63 0
42 85 0
-42 -85 0
33 134 0
-33 -134 0
122 91 0
-122 -91 0
138 87 0
-138 -87 0
24 79 0
-24 -79 0
55 122 0
-55 -122 0
124 91 0
-124 -91 0
106 3 0
-106 -3 0
81 100 0
-81 -100 0
125 128 0
-125 -128 0
55 28 0
-55 -28 0
70 90 0
-70 -90 0
7 9 0
-7 -9 0
6 12 0
-6 -12 0
48 113 0
-48 -113 0
110 127 0
-110 -127 0
61 10 0
-61 -10 0
10 70 0
-10 -70 0
26 122 0
-26 -122 0
21 83 0
-21 -83 0
126 26 0
-126 -26 0
32 95 0
-32 -95 0
30 38 0
-30 -38 0
20 92 0
-20 -92 0
20 136 0
-20 -136 0
39 54 0
-39 -54 0
61 55 0
-61 -55 0
95 134 0
-95 -134 0
130 105 0
-130 -105 0
66 58 0
-66 -58 0
65 63 0
-65 -63 0
98 116 0
-98 -116 0
86 5 0
-86 -5 0
53 126 0
-53 -126 0
138 20 0
-138 -20 0
106 1 0
-106 -1 0
20 58 0
-20 -58 0
6 103 0
-6 -103 0
18 28 0
-18 -28 0
65 24 0
-65 -24 0
107 88 0
-107 -88 0
72 112 0
-72 -112 0
14 84 0
-14 -84 0
15 33 0
-15 -33 0
98 129 0
-98 -129 0
68 31 0
-68 -31 0
1 89 0
-1 -89 0
13 94 0
-13 -94 0
44 131 0
-44 -131 0
57 50 0
-57 -50 0
13 80 0
-13 -80 0
39 128 0
-39 -128 0
116 78 0
-116 -78 0
44 66 0
-44 -66 0
73 50 0
-73 -50 0
74 71 0
-74 -71 0
65 118 0
-65 -118 0
123 34 0
-123 -34 0
129 80 0
-129 -80 0
48 96 0
-48 -96 0
8 71 0
-8 -71 0
59 82 0
-59 -82 0
135 64 0
-135 -64 0
81 33 0
-81 -33 0
132 36 0
-132 -36 0
8 46 0
-8 -46 0
27 137 0
-27 -137 0
85 105 0
-85 -105 0
125 54 0
-125 -54 0
43 75 0
-43 -75 0
44 78 0
-44 -78 0
15 54 0
-15 -54 0
69 124 0
-69 -124 0
44 52 0
-44 -52 0
136 111 0
-136 -111 0
98 136 0
-98 -136 0
87 5 0
-87 -5 0
19 128 0
-19 -128 0
28 133 0
-28 -133 0
108 90 0
-108 -90 0
123 1 0
-123 -1 0
6 137 0
-6 -137 0
53 58 0
-53 -58 0
31 9 0
-31 -9 0
68 111 0
-68 -111 0
55 93 0
-55 -93 0
69 47 0
-69 -47 0
116 6 0
-116 -6 0
121 17 0
-121 -17 0
122 132 0
-122 -132 0
41 89 0
-41 -89 0
57 134 0
-57 -134 0
129 31 0
-129 -31 0
13 88 0
-13 -88 0
135 117 0
-135 -117 0
79 37 0
-79 -37 0
8 115 0
-8 -115 0
56 109 0
-56 -109 0
83 96 0
-83 -96 0
120 22 0
-120 -22 0
107 62 0
-107 -62 0
121 8 0
-121 -8 0
32 49 0
-32 -49 0
65 95 0
-65 -95 0
131 75 0
-131 -75 0
14 24 0
-14 -24 0
65 25 0
-65 -25 0
60 90 0
-60 -90 0
104 29 0
-104 -29 0
110 94 0
-110 -94 0
126 62 0
-126 -62 0
39 72 0
-39 -72 0
93 124 0
-93 -124 0
103 3 0
-103 -3 0
103 54 0
-103 -54 0
29 4 0
-29 -4 0
44 118 0
-44 -118 0
15 44 0
-15 -44 0
88 120 0
-88 -120 0
92 70 0
-92 -70 0
69 132 0
-69 -132 0
81 5 0
-81 -5 0
106 5 0
-106 -5 0
117 80 0
-117 -80 0
41 134 0
-41 -134 0
11 96 0
-11 -96 0
110 72 0
-110 -72 0
55 60 0
-55 -60 0
110 92 0
-110 -92 0
58 62 0
-58 -62 0
41 108 0
-41 -108 0
13 3 0
-13 -3 0
121 140 0
-121 -140 0
10 103 0
-10 -103 0
140 48 0
-140 -48 0
43 58 0
-43 -58 0
15 104 0
-15 -104 0
26 100 0
-26 -100 0
66 82 0
-66 -82 0
113 108 0
-113 -108 0
46 17 0
-46 -17 0
1 6 0
-1 -6 0
55 73 0
-55 -73 0
80 125 0
-80 -125 0
18 26 0
-18 -26 0
138 77 0
-138 -77 0
10 93 0
-10 -93 0
129 6 0
-129 -6 0
121 14 0
-121 -14 0
99 3 0
-99 -3 0
41 38 0
-41 -38 0
111 69 0
-111 -69 0
6 67 0
-6 -67 0
98 45 0
-98 -45 0
84 114 0
-84 -114 0
26 66 0
-26 -66 0
131 40 0
-131 -40 0
88 95 0
-88 -95 0
30 59 0
-30 -59 0
110 37 0
-110 -37 0
132 134 0
-132 -134 0
36 17 0
-36 -17 0
26 112 0
-26 -112 0
6 125 0
-6 -125 0
31 93 0
-31 -93 0
113 91 0
-113 -91 0
66 132 0
-66 -132 0
32 85 0
-32 -85 0
68 9 0
-68 -9 0
106 123 0
-106 -123 0
135 36 0
-135 -36 0
60 112 0
-60 -112 0
131 105 0
-131 -105 0
117 91 0
-117 -91 0
76 88 0
-76 -88 0
129 25 0
-129 -25 0
24 64 0
-24 -64 0
31 12 0
-31 -12 0
61 108 0
-61 -108 0
93 48 0
-93 -48 0
32 6 0
-32 -6 0
106 75 0
-106 -75 0
1 108 0
-1 -108 0
132 119 0
-132 -119 0
35 75 0
-35 -75 0
48 104 0
-48 -104 0
92 91 0
-92 -91 0
3 90 0
-3 -90 0
87 108 0
-87 -108 0
114 37 0
-114 -37 0
79 62 0
-79 -62 0
26 94 0
-26 -94 0
15 107 0
-15 -107 0
87 10 0
-87 -10 0
32 21 0
-32 -21 0
139 73 0
-139 -73 0
25 104 0
-25 -104 0
69 127 0
-69 -127 0
68 2 0
-68 -2 0
24 57 0
-24 -57 0
30 128 0
-30 -128 0
3 108 0
-3 -108 0
110 122 0
-110 -122 0
87 48 0
-87 -48 0
49 21 0
-49 -21 0
19 6 0
-19 -6 0
16 90 0
-16 -90 0
34 133 0
-34 -133 0
136 115 0
-136 -115 0
98 117 0
-98 -117 0
101 29 0
-101 -29 0
86 71 0
-86 -71 0
117 119 0
-117 -119 0
43 80 0
-43 -80 0
121 82 0
-121 -82 0
2 96 0
-2 -96 0
110 89 0
-110 -89 0
101 116 0
-101 -116 0
76 9 0
-76 -9 0
76 137 0
-76 -137 0
31 70 0
-31 -70 0
55 36 0
-55 -36 0
26 37 0
-26 -37 0
21 132 0
-21 -132 0
127 91 0
-127 -91 0
116 17 0
-116 -17 0
78 90 0
-78 -90 0
43 108 0
-43 -108 0
139 52 0
-139 -52 0
51 22 0
-51 -22 0
23 86 0
-23 -86 0
129 26 0
-129 -26 0
98 59 0
-98 -59 0
41 127 0
-41 -127 0
39 1 0
-39 -1 0
47 130 0
-47 -130 0
7 6 0
-7 -6 0
45 36 0
-45 -36 0
56 70 0
-56 -70 0
42 105 0
-42 -105 0
88 127 0
-88 -127 0
13 6 0
-13 -6 0
135 132 0
-135 -132 0
59 54 0
-59 -54 0
19 121 0
-19 -121 0
101 100 0
-101 -100 0
20 5 0
-20 -5 0
61 46 0
-61 -46 0
15 84 0
-15 -84 0
8 59 0
-8 -59 0
116 70 0
-116 -70 0
98 109 0
-98 -109 0
116 36 0
-116 -36 0
68 127 0
-68 -127 0
20 19 0
-20 -19 0
105 59 0
-105 -59 0
107 56 0
-107 -56 0
44 51 0
-44 -51 0
9 75 0
-9 -75 0
98 12 0
-98 -12 0
99 5 0
-99 -5 0
123 67 0
-123 -67 0
21 118 0
-21 -118 0
107 63 0
-107 -63 0
57 26 0
-57 -26 0
87 113 0
-87 -113 0
49 91 0
-49 -91 0
9 40 0
-9 -40 0
7 23 0
-7 -23 0
74 25 0
-74 -25 0
127 48 0
-127 -48 0
119 96 0
-119 -96 0
28 40 0
-28 -40 0
130 113 0
-130 -113 0
2 91 0
-2 -91 0
115 122 0
-115 -122 0
68 81 0
-68 -81 0
130 108 0
-130 -108 0
47 105 0
-47 -105 0
66 105 0
-66 -105 0
135 17 0
-135 -17 0
85 70 0
-85 -70 0
99 69 0
-99 -69 0
81 135 0
-81 -135 0
2 14 0
-2 -14 0
74 26 0
-74 -26 0
127 128 0
-127 -128 0
